global
1.0
        7.1564002037         0.0000000000         0.0000000000
       -3.5782001019         6.1976243761         0.0000000000
        0.0000000000         0.0000000000        38.3452987671
   Al   Fe    S
    4    2    8
Direct
     0.498605000         0.000380000         0.497986000
     0.998937760         0.500049000         0.497986000
     0.828512000         0.162691000         0.592652000
     0.328179000         0.663023000         0.592652000
     0.169588000         0.337435000         0.404952000
     0.669256000         0.837767000         0.404952000
     0.006317580         0.008861310         0.384661000
     0.505985000         0.509193000         0.384661000
     0.994650000         0.996299000         0.618428000
     0.494982000         0.495967000         0.618428000
     0.166142000         0.333283000         0.466939000
     0.665810000         0.833615000         0.466939000
     0.832078000         0.165150000         0.534851000
     0.331747000         0.665483000         0.534851000
