global
1.0
        7.1851601601         0.0000000000         0.0000000000
       -1.7962900400         3.1112656144         0.0000000000
        0.0000000000         0.0000000000        39.0527992249
   Al   Cr    S
    4    2    8
Direct
     0.000000345         0.000000000         0.499977000
     0.500000000         0.000000000         0.499977000
     0.333334000         0.333334000         0.592663000
     0.833334000         0.333334000         0.592663000
     0.166673000         0.666662000         0.405162000
     0.666673000         0.666662000         0.405162000
     0.000000000         0.000003240         0.380017000
     0.500000000         0.000003240         0.380017000
     0.000001000         0.000000270         0.618015000
     0.500001000         0.000000270         0.618015000
     0.166667000         0.666665000         0.468862000
     0.666667000         0.666665000         0.468862000
     0.333334000         0.333333000         0.535762000
     0.833334000         0.333333000         0.535762000
