global                                  
   1.00000000000000     
     7.1845638694021341    0.0228665173887266    0.0000000000000000
    -1.7961409673255353    3.1119104606001966    0.0000000000000000
     0.0000000000000000    0.0000000000000000   39.0527992248999993
   Al   Cr   S 
     4     2     8
Direct
  0.9993383489496754  0.9992130666255202  0.4999677044858836
  0.4993380039496785  0.9992130666255202  0.4999677044858836
  0.3352001018040791  0.3337560702932024  0.5926408807634863
  0.8352001018040790  0.3337560702932024  0.5926408807634863
  0.1657505898479178  0.6675170418973946  0.4053012242897540
  0.6657505898479175  0.6675170418973946  0.4053012242897540
  0.9986242598657358  0.0014232714121713  0.3799553745464960
  0.4986242598657352  0.0014232714121713  0.3799553745464960
  0.0020482440034676  0.9996029767998007  0.6177549383842790
  0.5020482440034675  0.9996029767998007  0.6177549383842790
  0.1661459283020122  0.6655670669024591  0.4690613062216654
  0.6661459283020122  0.6655670669024591  0.4690613062216654
  0.3329018722271080  0.3329180160694584  0.5357765713084371
  0.8329018722271075  0.3329180160694584  0.5357765713084371
 
  0.00000000E+00  0.00000000E+00  0.00000000E+00
  0.00000000E+00  0.00000000E+00  0.00000000E+00
  0.00000000E+00  0.00000000E+00  0.00000000E+00
  0.00000000E+00  0.00000000E+00  0.00000000E+00
  0.00000000E+00  0.00000000E+00  0.00000000E+00
  0.00000000E+00  0.00000000E+00  0.00000000E+00
  0.00000000E+00  0.00000000E+00  0.00000000E+00
  0.00000000E+00  0.00000000E+00  0.00000000E+00
  0.00000000E+00  0.00000000E+00  0.00000000E+00
  0.00000000E+00  0.00000000E+00  0.00000000E+00
  0.00000000E+00  0.00000000E+00  0.00000000E+00
  0.00000000E+00  0.00000000E+00  0.00000000E+00
  0.00000000E+00  0.00000000E+00  0.00000000E+00
  0.00000000E+00  0.00000000E+00  0.00000000E+00
