global                                  
   1.00000000000000     
     7.3552105440756401   -0.0242999166520882    0.0000000000000000
    -1.8388026360189100    3.2031493374375390    0.0000000000000000
     0.0000000000000000    0.0000000000000000   38.8940010071000017
   Ga   Mn   S 
     4     2     8
Direct
  0.9999188894044252  0.9999188676063054  0.4981493095069355
  0.4999188894044251  0.9999188676063054  0.4981493095069355
  0.3323260127656352  0.3323260806262556  0.5932749850701318
  0.8323260127656352  0.3323260806262556  0.5932749850701318
  0.1694154665824557  0.6694157361021081  0.4042231578065015
  0.6694154665824555  0.6694157361021081  0.4042231578065015
  0.0002909181012917  0.0002906698518217  0.3828854279756977
  0.5002909181012918  0.0002906698518217  0.3828854279756977
  0.9982978169523756  0.9982977442227003  0.6192171785961076
  0.4982978169523755  0.9982977442227003  0.6192171785961076
  0.1666982680485532  0.6666982230805677  0.4670575820534050
  0.6666982680485534  0.6666982230805676  0.4670575820534050
  0.3330526281452638  0.3330526785102405  0.5356633589912181
  0.8330526281452644  0.3330526785102405  0.5356633589912181
 
  0.00000000E+00  0.00000000E+00  0.00000000E+00
  0.00000000E+00  0.00000000E+00  0.00000000E+00
  0.00000000E+00  0.00000000E+00  0.00000000E+00
  0.00000000E+00  0.00000000E+00  0.00000000E+00
  0.00000000E+00  0.00000000E+00  0.00000000E+00
  0.00000000E+00  0.00000000E+00  0.00000000E+00
  0.00000000E+00  0.00000000E+00  0.00000000E+00
  0.00000000E+00  0.00000000E+00  0.00000000E+00
  0.00000000E+00  0.00000000E+00  0.00000000E+00
  0.00000000E+00  0.00000000E+00  0.00000000E+00
  0.00000000E+00  0.00000000E+00  0.00000000E+00
  0.00000000E+00  0.00000000E+00  0.00000000E+00
  0.00000000E+00  0.00000000E+00  0.00000000E+00
  0.00000000E+00  0.00000000E+00  0.00000000E+00
