global
1.0
        7.3075599670         0.0000000000         0.0000000000
       -1.8268899918         3.1642662856         0.0000000000
        0.0000000000         0.0000000000        38.6668014526
   Al   Mn    S
    4    2    8
Direct
     0.000000000         0.000000000         0.499567000
     0.500000000         0.000000000         0.499567000
     0.166667000         0.666666000         0.592969000
     0.666667000         0.666666000         0.592969000
     0.333333000         0.333333000         0.404542000
     0.833333000         0.333333000         0.404542000
     0.000000000         0.000000000         0.381080000
     0.500000000         0.000000000         0.381080000
     0.000000000         0.000000000         0.617429000
     0.500000000         0.000000000         0.617429000
     0.333333000         0.333333000         0.469303000
     0.833333000         0.333333000         0.469303000
     0.166667000         0.666666000         0.535570000
     0.666667000         0.666666000         0.535570000
