global                                  
   1.00000000000000     
     7.1563971269299707    0.0082394711828830    0.0000000000000000
    -1.7890992817324927    3.1075210259311374    0.0000000000000000
     0.0000000000000000    0.0000000000000000   38.3452987670999974
   Al   Fe   S 
     4     2     8
Direct
  0.9990158362435437  0.9980900061720733  0.4979864183183071
  0.4990158362435436  0.9980900061720733  0.4979864183183071
  0.1621153641473971  0.6660555975274973  0.5926518967732973
  0.6621153641473968  0.6660555975274973  0.5926518967732973
  0.3369766773025678  0.3338594754694529  0.4049520189392461
  0.8369766773025676  0.3338594754694529  0.4049520189392461
  0.0088518827159422  0.0050497358845575  0.3846611909336879
  0.5088516427159367  0.0050497358845575  0.3846611909336879
  0.9956370753106106  0.0006494501856802  0.6184276497530823
  0.4956368053106098  0.0006494501856802  0.6184276497530823
  0.3328282039160462  0.3324619046817712  0.4669391696081260
  0.8328282039160465  0.3324619046817712  0.4669391696081260
  0.1645744703638944  0.6638408300789704  0.5348506556742487
  0.6645754703638989  0.6638408300789704  0.5348506556742487
 
  0.00000000E+00  0.00000000E+00  0.00000000E+00
  0.00000000E+00  0.00000000E+00  0.00000000E+00
  0.00000000E+00  0.00000000E+00  0.00000000E+00
  0.00000000E+00  0.00000000E+00  0.00000000E+00
  0.00000000E+00  0.00000000E+00  0.00000000E+00
  0.00000000E+00  0.00000000E+00  0.00000000E+00
  0.00000000E+00  0.00000000E+00  0.00000000E+00
  0.00000000E+00  0.00000000E+00  0.00000000E+00
  0.00000000E+00  0.00000000E+00  0.00000000E+00
  0.00000000E+00  0.00000000E+00  0.00000000E+00
  0.00000000E+00  0.00000000E+00  0.00000000E+00
  0.00000000E+00  0.00000000E+00  0.00000000E+00
  0.00000000E+00  0.00000000E+00  0.00000000E+00
  0.00000000E+00  0.00000000E+00  0.00000000E+00
